75357
1 0 0 0 0 0 0 0 1 1 1 0 0 0 1 0 0 1 0 1 0 1 0 1 0 0 0 1 1 0 
28 28 8 17 9 0 14 0 9 27 28 28 28 10 14 9 9 8 28 10 27 8 23 23 27 9 9 0 9 10 23 14 10 8 9 28 0 9 19 0 14 9 17 14 19 14 27 21 0 9 8 9 23 23 28 19 8 8 0 19 23 0 19 9 10 17 9 8 19 27 27 27 8 9 27 27 8 17 8 23 10 0 23 27 9 9 19 14 8 17 0 28 10 14 14 8 8 9 17 10 8 21 0 8 0 10 9 23 23 27 17 23 28 10 8 27 27 10 10 8 19 23 27 17 27 8 21 19 27 27 0 9 9 9 23 14 19 0 27 14 8 0 19 17 8 0 9 9 17 19 0 19 10 0 8 14 0 27 10 10 10 27 0 10 23 27 23 19 9 10 8 8 14 21 17 14 0 10 14 9 27 28 19 28 10 10 28 8 17 19 27 28 10 14 14 17 0 17 8 8 
